1
1000
85
258 1
299 1
196 1
150 1
262 2
135 1
363 1
139 1
365 3
248 1
350 3
277 1
22 1
23 1
25 1
184 1
157 1
286 1
32 1
295 1
162 1
163 1
292 1
37 1
241 1
40 1
170 1
263 1
304 2
305 1
306 1
51 2
308 1
53 1
54 1
56 1
372 2
58 1
59 1
317 1
191 1
192 1
279 1
195 3
68 1
310 2
200 1
204 1
202 1
203 1
76 1
333 1
79 1
208 1
81 1
82 1
345 1
331 1
207 1
348 1
186 1
222 1
95 1
352 1
165 1
315 1
229 1
231 1
360 1
106 1
235 2
364 1
109 1
366 1
367 1
168 1
371 2
116 1
117 2
120 1
123 1
124 2
125 1
126 1
127 1
